(set-logic HORN)
(set-info :source |
    Benchmark: C_VC
    Output by Princess (http://www.philipp.ruemmer.org/princess.shtml)
|)
(set-info :status unknown)
(declare-fun inv_main17 (Int Int Int Int Int) Bool)
(declare-fun inv_main19 (Int Int Int Int Int) Bool)
(declare-fun inv_main20 (Int Int Int Int Int) Bool)
(declare-fun inv_main21 (Int Int Int Int Int) Bool)
(declare-fun inv_main4 (Int Int Int Int Int) Bool)
(assert (forall ((var0 Int)) (forall ((var1 Int)) (forall ((var2 Int)) (forall ((var3 Int)) (forall ((var4 Int)) (inv_main4 var3 var1 var2 var0 var4 ) ) ) ) ) ) )
(assert (forall ((var0 Int)) (forall ((var1 Int)) (forall ((var2 Int)) (forall ((var3 Int)) (forall ((var4 Int)) (or (not (inv_main17 var4 var1 var3 var0 var2 ) ) (inv_main19 var4 var1 var3 var0 var2 ) ) ) ) ) ) ) )
(assert (forall ((var0 Int)) (forall ((var1 Int)) (forall ((var2 Int)) (forall ((var3 Int)) (forall ((var4 Int)) (or (not (inv_main19 var4 var1 var3 var0 var2 ) ) (inv_main20 var4 var1 var3 var0 var2 ) ) ) ) ) ) ) )
(assert (forall ((var0 Int)) (forall ((var1 Int)) (forall ((var2 Int)) (forall ((var3 Int)) (forall ((var4 Int)) (or (not (inv_main20 var4 var1 var3 var0 var2 ) ) (inv_main21 var4 var1 var3 var0 var2 ) ) ) ) ) ) ) )
(assert (forall ((var0 Int)) (forall ((var1 Int)) (forall ((var2 Int)) (forall ((var3 Int)) (forall ((var4 Int)) (forall ((var5 Int)) (forall ((var6 Int)) (forall ((var7 Int)) (or (not (and (inv_main4 var7 var2 var5 var0 var3 ) (and (and (forall ((var8 Int)) (or (not (and (and (and (<= 0 (+ (+ 8 (* (- 1) (+ var6 (* (- 8) var8 ) ) ) ) (- 1) ) ) (<= 0 (+ (+ 8 (* 1 (+ var6 (* (- 8) var8 ) ) ) ) (- 1) ) ) ) (or (not (<= 0 (+ (+ var6 (* (- 8) var8 ) ) (- 1) ) ) ) (<= 0 (+ var6 (- 1) ) ) ) ) (or (not (<= 0 (+ (* (- 1) (+ var6 (* (- 8) var8 ) ) ) (- 1) ) ) ) (<= 0 (+ (* (- 1) var6 ) (- 1) ) ) ) ) ) (<= 0 (+ var8 (- 1) ) ) ) ) (<= 0 (+ var1 (- 1) ) ) ) (forall ((var8 Int)) (or (not (and (and (and (<= 0 (+ (+ 32 (* (- 1) (+ var6 (* (- 32) var8 ) ) ) ) (- 1) ) ) (<= 0 (+ (+ 32 (* 1 (+ var6 (* (- 32) var8 ) ) ) ) (- 1) ) ) ) (or (not (<= 0 (+ (+ var6 (* (- 32) var8 ) ) (- 1) ) ) ) (<= 0 (+ var6 (- 1) ) ) ) ) (or (not (<= 0 (+ (* (- 1) (+ var6 (* (- 32) var8 ) ) ) (- 1) ) ) ) (<= 0 (+ (* (- 1) var6 ) (- 1) ) ) ) ) ) (= var4 var8 ) ) ) ) ) ) (inv_main17 var6 var1 var4 0 var3 ) ) ) ) ) ) ) ) ) ) )
(assert (forall ((var0 Int)) (forall ((var1 Int)) (forall ((var2 Int)) (forall ((var3 Int)) (forall ((var4 Int)) (or (not (and (inv_main21 var4 var1 var3 var0 var2 ) (and (forall ((var5 Int)) (or (not (and (and (and (<= 0 (+ (+ 8 (* (- 1) (+ var4 (* (- 8) var5 ) ) ) ) (- 1) ) ) (<= 0 (+ (+ 8 (* 1 (+ var4 (* (- 8) var5 ) ) ) ) (- 1) ) ) ) (or (not (<= 0 (+ (+ var4 (* (- 8) var5 ) ) (- 1) ) ) ) (<= 0 (+ var4 (- 1) ) ) ) ) (or (not (<= 0 (+ (* (- 1) (+ var4 (* (- 8) var5 ) ) ) (- 1) ) ) ) (<= 0 (+ (* (- 1) var4 ) (- 1) ) ) ) ) ) (<= 0 (+ (+ var5 (* (- 1) (+ var0 1 ) ) ) (- 1) ) ) ) ) (<= 0 (+ (+ var1 (* (- 1) (+ var0 1 ) ) ) (- 1) ) ) ) ) ) (inv_main17 var4 var1 var3 (+ var0 1 ) var2 ) ) ) ) ) ) ) )
(assert (forall ((var0 Int)) (forall ((var1 Int)) (forall ((var2 Int)) (forall ((var3 Int)) (forall ((var4 Int)) (not (and (inv_main17 var4 var1 var3 var0 var2 ) (not (<= 0 var0 ) ) ) ) ) ) ) ) ) )
(assert (forall ((var0 Int)) (forall ((var1 Int)) (forall ((var2 Int)) (forall ((var3 Int)) (forall ((var4 Int)) (not (and (inv_main19 var4 var1 var3 var0 var2 ) (not (<= 0 (+ (+ var1 (* (- 1) var0 ) ) (- 1) ) ) ) ) ) ) ) ) ) ) )
(assert (forall ((var0 Int)) (forall ((var1 Int)) (forall ((var2 Int)) (forall ((var3 Int)) (forall ((var4 Int)) (not (and (inv_main20 var4 var1 var3 var0 var2 ) (not (exists ((var5 Int)) (and (and (and (and (<= 0 (+ (+ 4 (* (- 1) (+ var0 (* (- 4) var5 ) ) ) ) (- 1) ) ) (<= 0 (+ (+ 4 (* 1 (+ var0 (* (- 4) var5 ) ) ) ) (- 1) ) ) ) (or (not (<= 0 (+ (+ var0 (* (- 4) var5 ) ) (- 1) ) ) ) (<= 0 (+ var0 (- 1) ) ) ) ) (or (not (<= 0 (+ (* (- 1) (+ var0 (* (- 4) var5 ) ) ) (- 1) ) ) ) (<= 0 (+ (* (- 1) var0 ) (- 1) ) ) ) ) (<= 0 var5 ) ) ) ) ) ) ) ) ) ) ) )
(assert (forall ((var0 Int)) (forall ((var1 Int)) (forall ((var2 Int)) (forall ((var3 Int)) (forall ((var4 Int)) (not (and (inv_main21 var4 var1 var3 var0 var2 ) (not (exists ((var5 Int)) (and (and (and (and (<= 0 (+ (+ 4 (* (- 1) (+ var0 (* (- 4) var5 ) ) ) ) (- 1) ) ) (<= 0 (+ (+ 4 (* 1 (+ var0 (* (- 4) var5 ) ) ) ) (- 1) ) ) ) (or (not (<= 0 (+ (+ var0 (* (- 4) var5 ) ) (- 1) ) ) ) (<= 0 (+ var0 (- 1) ) ) ) ) (or (not (<= 0 (+ (* (- 1) (+ var0 (* (- 4) var5 ) ) ) (- 1) ) ) ) (<= 0 (+ (* (- 1) var0 ) (- 1) ) ) ) ) (<= 0 (+ (+ var3 (* (- 1) var5 ) ) (- 1) ) ) ) ) ) ) ) ) ) ) ) ) )
(check-sat)
